# Structure: ACO
# Generated from 18_new_Ice.pdf
%BLOCK LATTICE_CART
7.557541 -0.000015 0.000005
-0.000015 7.557534 0.000001
0.000005 0.000001 7.557548
%ENDBLOCK LATTICE_CART

%BLOCK POSITIONS_FRAC
H 0.249997 0.249500 0.249517
H 0.749987 0.749963 0.749993
H 0.749992 0.750002 0.249526
H 0.249568 0.249546 0.749946
H 0.749958 0.249532 0.749957
H 0.249507 0.749990 0.249989
H 0.249910 0.750082 0.750086
H 0.750046 0.249957 0.249947
H 0.173741 0.173756 -0.000056
H 0.826249 0.826256 -0.000035
H 0.826231 0.173770 -0.000037
H 0.173773 0.826235 0.000046
H 0.000029 0.173774 0.173762
H -0.000048 0.826238 0.826224
H -0.000037 0.826253 0.173747
H -0.000000 0.173752 0.826253
H 0.173753 0.000029 0.173749
H 0.826249 0.000057 0.826247
H 0.173762 0.000046 0.826230
H 0.826232 0.000007 0.173761
H 0.673766 0.673752 0.499955
H 0.326243 0.326219 0.499986
H 0.326253 0.673734 0.500038
H 0.673764 0.326232 0.500010
H 0.499982 0.673731 0.673759
H 0.500016 0.326239 0.326256
H 0.499987 0.326211 0.673776
H 0.499999 0.673755 0.326247
H 0.673773 0.500024 0.673775
H 0.326242 0.500010 0.326246
H 0.673756 0.499918 0.326257
H 0.326254 0.500081 0.673760
O 0.159136 0.159159 0.159178
O 0.840871 0.840833 0.840852
O 0.840849 0.840856 0.159168
O 0.159150 0.159132 0.840864
O 0.840837 0.159148 0.840859
O 0.159168 0.840841 0.159122
O 0.159190 0.840814 0.840801
O 0.840819 0.159176 0.159175
O 0.659183 0.659141 0.659184
O 0.340833 0.340832 0.340861
O 0.340848 0.340789 0.659178
O 0.659158 0.659185 0.340867
O 0.340840 0.659151 0.340817
O 0.659166 0.340821 0.659169
O 0.659150 0.340869 0.340852
O 0.340867 0.659105 0.659134
%ENDBLOCK POSITIONS_FRAC
