# Structure: BSV
# Generated from 18_new_Ice.pdf
%BLOCK LATTICE_CART
12.870585 -0.013532 -0.022867
-4.302907 12.129375 -0.022593
-4.302439 -6.083988 10.491005
%ENDBLOCK LATTICE_CART

%BLOCK POSITIONS_FRAC
H 0.080245 0.456467 0.736819
H 0.919769 0.543549 0.263170
H 0.279895 0.042826 0.122846
H 0.720072 0.957162 0.877154
H 0.418961 0.156482 0.376384
H 0.581048 0.843510 0.623623
H 0.219899 0.343048 0.763280
H 0.780136 0.656951 0.236732
H 0.043562 0.263182 0.419791
H 0.956469 0.736811 0.580240
H 0.236814 0.580221 0.456481
H 0.763191 0.419777 0.543486
H 0.156964 0.236728 0.280139
H 0.843071 0.763279 0.719893
H 0.622895 0.779959 0.042919
H 0.377115 0.220060 0.957092
H 0.542809 0.122819 0.779876
H 0.457159 0.877193 0.220098
H 0.123619 0.081036 0.843485
H 0.876341 0.918963 0.156526
H 0.343466 0.623619 0.081023
H 0.656512 0.376388 0.918948
H 0.263261 0.719867 0.343076
H 0.736734 0.280107 0.656924
H 0.263157 0.043555 0.919780
H 0.736835 0.956475 0.080239
H 0.122836 0.542858 0.279927
H 0.877165 0.457124 0.720058
H 0.376388 0.656529 0.418990
H 0.623637 0.343474 0.581005
H 0.236727 0.156934 0.780130
H 0.763273 0.843057 0.219888
H 0.580195 0.236811 0.956431
H 0.456440 0.080216 0.236807
H 0.543541 0.919770 0.763185
H 0.280113 0.736749 0.156941
H 0.719855 0.263240 0.843042
H 0.042848 0.279904 0.622823
H 0.957151 0.720078 0.377153
H 0.220083 0.377120 0.457128
H 0.779968 0.622890 0.542904
H 0.156538 0.418975 0.876417
H 0.843497 0.581064 0.123606
H 0.081020 0.123617 0.343503
H 0.918987 0.876361 0.656530
H 0.343008 0.219838 0.263272
H 0.656965 0.780161 0.736734
H 0.081102 0.392119 0.538828
H 0.918917 0.607881 0.461181
H 0.146667 0.107710 0.188522
H 0.853326 0.892283 0.811493
H 0.581385 0.042342 0.689525
H 0.418607 0.957669 0.310466
H 0.646903 0.457699 0.037979
H 0.353091 0.542307 0.962006
H 0.107869 0.461203 0.418921
H 0.892157 0.538789 0.581068
H 0.038797 0.581069 0.392106
H 0.961232 0.418973 0.607876
H 0.957683 0.037981 0.146905
H 0.042300 0.962013 0.853113
H 0.688574 0.646717 0.107732
H 0.311500 0.353307 0.892275
H 0.607730 0.188533 0.646679
H 0.392240 0.811449 0.353305
H 0.189503 0.081368 0.042334
H 0.810442 0.918608 0.957660
H 0.542335 0.689561 0.081423
H 0.457667 0.310464 0.918573
H 0.538014 0.146913 0.457703
H 0.461990 0.853071 0.542326
H 0.461178 0.107848 0.918887H 0.538791 0.892176 0.081075
H 0.188508 0.607730 0.146676
H 0.811435 0.392253 0.853296
H 0.310480 0.457700 0.418627
H 0.689578 0.542319 0.581402
H 0.962005 0.042301 0.353124
H 0.038003 0.957654 0.646908
H 0.418928 0.961178 0.107865
H 0.581046 0.038817 0.892104
H 0.392089 0.081055 0.038780
H 0.607891 0.918932 0.961216
H 0.853079 0.462007 0.042318
H 0.146923 0.538009 0.957706
H 0.107749 0.146699 0.688540
H 0.892263 0.853285 0.311459
H 0.353293 0.311452 0.392286
H 0.646723 0.688564 0.607738
H 0.042352 0.581426 0.189542
H 0.957678 0.418602 0.810467
H 0.081372 0.189503 0.542322
H 0.918612 0.810458 0.457666
H 0.542307 0.353100 0.461985
H 0.457694 0.646907 0.538024
O 0.041586 0.414766 0.642063
O 0.958407 0.585207 0.357928
O 0.227268 0.084554 0.126484
O 0.772750 0.915483 0.873542
O 0.457309 0.100484 0.372763
O 0.542719 0.899533 0.627234
O 0.726911 0.600628 0.141862
O 0.273099 0.399365 0.858143
O 0.085100 0.357913 0.458335
O 0.914885 0.642078 0.541657
O 0.142080 0.541615 0.414810
O 0.857926 0.458356 0.585134
O 0.100615 0.141876 0.226892
O 0.899368 0.858132 0.773088
O 0.626490 0.727314 0.084641
O 0.373532 0.272727 0.915390
O 0.584623 0.126498 0.727311
O 0.415404 0.873529 0.272720
O 0.127220 0.042706 0.899529
O 0.872734 0.957322 0.100512
O 0.399508 0.627232 0.042702
O 0.600481 0.372774 0.957277
O 0.641884 0.226854 0.600581
O 0.358111 0.773071 0.399385
O 0.357882 0.085125 0.958330
O 0.642104 0.914900 0.041682
O 0.126457 0.584557 0.227252
O 0.873530 0.415391 0.772695
O 0.372784 0.600486 0.457315
O 0.627252 0.399490 0.542656
O 0.141873 0.100630 0.726932
O 0.858129 0.899388 0.273139
O 0.458410 0.857943 0.085228
O 0.541567 0.142065 0.914752
O 0.414841 0.041608 0.142054
O 0.585164 0.958401 0.857938
O 0.226899 0.641896 0.100622
O 0.773106 0.358098 0.899384
O 0.084595 0.227284 0.626482
O 0.915371 0.772666 0.373495
O 0.272718 0.373532 0.415400
O 0.727288 0.626465 0.584591
O 0.100487 0.457273 0.872805
O 0.899517 0.542734 0.127228
O 0.042680 0.127238 0.399522
O 0.957296 0.872752 0.600475
O 0.399365 0.273109 0.358133
O 0.600660 0.726943 0.641871
%ENDBLOCK POSITIONS_FRAC
