# Structure: DDR
# Generated from 18_new_Ice.pdf
%BLOCK LATTICE_CART
10.943623 0.369952 0.177150
5.790014 9.292627 0.043152
5.750655 3.173819 12.142493
%ENDBLOCK LATTICE_CART

%BLOCK POSITIONS_FRAC
H 0.333801 0.602935 0.248604
H 0.666195 0.397068 0.751385
H 0.198237 0.166515 0.749722
H 0.801765 0.833478 0.250279
H 0.142142 0.311827 0.229646
H 0.857851 0.688185 0.770353
H 0.201038 0.384438 0.743284
H 0.798979 0.615554 0.256703
H 0.143576 0.805395 0.226213
H 0.856408 0.194594 0.773793
H 0.326683 0.296082 0.258086
H 0.673309 0.703937 0.741902
H 0.548847 0.521042 0.234963
H 0.451148 0.478966 0.765048
H 0.721111 0.007173 0.252592
H 0.278902 0.992824 0.747403
H 1.012551 0.215060 0.258592
H -0.012550 0.784946 0.741400
H 0.685647 0.534144 0.242452
H 0.314345 0.465878 0.757546
H 1.019237 0.041642 0.235489
H -0.019247 0.958349 0.764525
H 0.550947 0.203708 0.227883
H 0.449053 0.796290 0.772115
H 0.402960 0.419894 0.290976
H 0.597043 0.580111 0.709007
H 0.087326 0.100368 0.697375
H 0.912678 0.899621 0.302608
H 0.087304 0.626288 0.699896
H 0.912695 0.373726 0.300089
H 0.315954 0.499127 0.421770
H 0.684044 0.500884 0.578211
H 0.255623 0.174312 0.576095
H 0.744391 0.825689 0.423895
H 0.011191 0.237715 0.424712
H 0.988834 0.762309 0.575258
H 0.261740 0.462806 0.613033
H 0.738276 0.537193 0.386959
H 0.007874 0.850669 0.387144
H 0.992128 0.149334 0.612842
H 0.349210 0.241187 0.382480
H 0.650798 0.758821 0.617507
H 0.280504 0.311883 0.111259
H 0.719486 0.688141 0.888736
H 0.281597 0.793168 0.105424
H 0.718387 0.206820 0.894577
H 0.185502 0.214497 0.896273
H 0.814495 0.785511 0.103730
H 0.178248 0.510614 0.143819
H 0.821735 0.489389 0.856191
H 0.178543 0.665887 0.137455
H 0.821447 0.334109 0.862563
H 0.032470 0.309405 0.853376
H 0.967521 0.690592 0.146637
H 0.638593 0.649619 0.078091
H 0.361403 0.350379 0.921922
H 0.644496 0.142059 0.073605
H 0.355504 0.857928 0.926410
H 0.161120 0.133234 0.076179
H 0.838883 0.866755 0.923823
H 0.477759 0.215130 -0.001353
H 0.522228 0.784872 0.001384
H 0.680490 0.023554 0.007129
H 0.319500 0.976433 -0.007106
H 0.299825 0.183004 0.001568
H 0.700168 0.816993 -0.001540
H 0.743624 0.398557 0.134832
H 0.256374 0.601425 0.865192
H 0.709891 0.219971 0.147853
H 0.290125 0.780006 0.852165
H 0.938762 0.201576 0.150234
H 0.061236 0.798408 0.849778H 0.232557 0.396136 0.502870
H 0.767458 0.603867 0.497112
H 0.144885 0.255480 0.496641
H 0.855130 0.744514 0.503345
H 0.094746 0.640936 0.500347
H 0.905275 0.359073 0.499631
H 0.178326 0.660493 -0.018182
H 0.821665 0.339502 1.018200
O 0.402988 0.510013 0.295615
O 0.597006 0.489994 0.704377
O 0.227194 0.099754 0.701936
O 0.772825 0.900240 0.298057
O 0.009540 0.273949 0.301452
O 0.990462 0.726066 0.698533
O 0.233914 0.466437 0.692069
O 0.766091 0.533564 0.307922
O 0.002900 0.900000 0.307353
O 0.997101 0.099998 0.692631
O 0.394848 0.275639 0.300741
O 0.605151 0.724376 0.699243
O 0.229676 0.340219 0.185695
O 0.770315 0.659795 0.814307
O 0.232886 0.735190 0.176617
O 0.767092 0.264799 0.823387
O 0.148554 0.265645 0.826737
O 0.851437 0.734355 0.173273
O 0.634150 0.726192 0.003659
O 0.365841 0.273813 0.996359
O 0.637585 0.135118 0.004769
O 0.362404 0.864871 0.995252
O 0.241626 0.134653 0.002192
O 0.758383 0.865336 0.997820
O 0.646913 0.531281 0.189005
O 0.353084 0.468721 0.811001
O 0.655019 0.156398 0.174072
O 0.344987 0.843588 0.825935
O 0.030031 0.135705 0.183131
O 0.969967 0.864283 0.816880
O 0.244921 0.483406 0.498309
O 0.755098 0.516595 0.501677
O 0.239293 0.245643 0.501833
O 0.760714 0.754362 0.498157
O -0.002463 0.256115 0.495465
O 0.002479 0.743890 0.504514
O 0.802838 0.305977 0.102083
O 0.197151 0.694012 0.897936
O 0.141548 0.623543 0.108835
O 0.858451 0.376456 0.891168
%ENDBLOCK POSITIONS_FRAC
