# Structure: LTA
# Generated from 18_new_Ice.pdf
%BLOCK LATTICE_CART
9.164225 -0.000015 -0.000014
-0.000015 9.164213 0.000021
-0.000014 0.000021 9.164197
%ENDBLOCK LATTICE_CART

%BLOCK POSITIONS_FRAC
H -0.000007 0.206477 0.500097
H 0.000000 0.793503 0.499981
H 0.499992 0.000000 0.206488
H 0.500035 -0.000008 0.793517
H 0.206492 0.500159 -0.000004
H 0.793516 0.499836 -0.000006
H 0.206496 -0.000001 0.500039
H 0.793492 -0.000010 0.499942
H 0.000002 0.500215 0.793489
H 0.000001 0.499932 0.206491
H 0.499839 0.206495 -0.000003
H 0.500148 0.793490 0.000006
H 0.101133 0.101130 0.359159
H 0.898868 0.898848 0.640836
H 0.898834 0.898892 0.359189
H 0.101114 0.101136 0.640797
H 0.898877 0.101143 0.640815
H 0.101133 0.898860 0.359173
H 0.101146 0.898879 0.640818
H 0.898932 0.101194 0.359174
H 0.359219 0.101120 0.101115
H 0.640783 0.898906 0.898854
H 0.359140 0.898895 0.898807
H 0.640860 0.101127 0.101166
H 0.640797 0.898850 0.101107
H 0.359206 0.101170 0.898924
H 0.640846 0.101127 0.898850
H 0.359152 0.898881 0.101171
H 0.101147 0.359150 0.101148
H 0.898791 0.640832 0.898910
H 0.898885 0.359187 0.898871
H 0.101097 0.640791 0.101136
H 0.101209 0.640767 0.898951
H 0.898839 0.359218 0.101083
H 0.898903 0.640856 0.101176
H 0.101096 0.359120 0.898802
H 0.000001 0.282297 0.282312
H -0.000011 0.717674 0.717651
H -0.000002 0.717703 0.282313
H 0.000008 0.282379 0.717787
H 0.282280 -0.000005 0.282334
H 0.717748 0.000001 0.717635
H 0.282337 -0.000018 0.717715
H 0.717675 -0.000003 0.282309
H 0.282165 0.282459 -0.000000
H 0.717780 0.717600 -0.000005
H 0.717555 0.282177 0.000004
H 0.282472 0.717843 -0.000009
O -0.000026 0.186204 0.369542
O -0.000013 0.813770 0.630427
O 0.000018 0.813768 0.369604
O -0.000003 0.186207 0.630353
O 0.369604 -0.000019 0.186213
O 0.630382 0.000004 0.813798
O 0.369566 -0.000040 0.813771
O 0.630422 0.000026 0.186228
O 0.186265 0.369489 0.000017
O 0.813766 0.630509 -0.000036
O 0.813810 0.369699 0.000013
O 0.186179 0.630304 -0.000033
O 0.186223 -0.000011 0.630387
O 0.813762 -0.000037 0.369622
O 0.813755 -0.000003 0.630443
O 0.186233 0.000008 0.369570
O 0.000027 0.369503 0.813787
O -0.000020 0.630434 0.186207
O 0.000026 0.369623 0.186234
O -0.000017 0.630325 0.813725
O 0.369699 0.186191 -0.000019
O 0.630315 0.813786 0.000023
O 0.369493 0.813724 0.000006
O 0.630516 0.186262 -0.000001
%ENDBLOCK POSITIONS_FRAC
