# Structure: NON
# Generated from 18_new_Ice.pdf
%BLOCK LATTICE_CART
8.412896 0.109847 -0.029323
-0.865616 8.408499 -0.036097
-3.806821 -4.303925 8.879616
%ENDBLOCK LATTICE_CART

%BLOCK POSITIONS_FRAC
H 0.531363 0.667298 0.193653
H 0.508811 0.308772 0.793399
H 0.020181 0.163091 0.181444
H 0.970542 0.837664 0.809695
H 0.216268 0.024181 0.206934
H 0.836572 0.969386 0.807955
H 0.663711 0.533001 0.192859
H 0.336535 0.476666 0.817016
H 0.540583 0.268547 0.600638
H 0.454437 0.731099 0.399164
H 0.121231 0.412034 0.353458
H 0.879052 0.588097 0.645560
H 0.408797 0.121005 0.355777
H 0.579923 0.878612 0.646216
H 0.268340 0.531874 0.599272
H 0.731300 0.467642 0.400617
H 0.368565 0.847419 0.246388
H 0.611168 0.147717 0.753792
H 0.846459 0.376447 0.245545
H 0.150910 0.620534 0.753900
H 0.277387 0.632748 0.180847
H 0.761341 0.418293 0.842860
H 0.056041 0.406741 0.184453
H 0.937249 0.591744 0.811908
H 0.420077 0.080656 0.157878
H 0.593904 0.942548 0.817188
H 0.631880 0.281042 0.186998
H 0.364925 0.718289 0.815840
H 0.502461 -0.023533 -0.013902
H 0.016043 0.490633 0.013149
H 0.365684 0.162218 0.033823
H 0.627099 0.838571 0.971544
H 0.156893 0.368763 0.027665
H 0.829846 0.627198 0.966238
H 0.406774 0.635059 0.496320
H 0.594261 0.364828 0.504461
H 0.358304 0.399754 0.503989
H 0.642130 0.601128 0.496104
H 0.110061 0.110072 0.875311
H 0.883329 0.888710 0.120122
H 0.263293 0.267106 0.879432
H 0.734981 0.735861 0.125113
H 0.001310 0.007764 0.025490
H 0.475846 0.481333 -0.026204
O 0.392153 0.730917 0.247728
O 0.596220 0.266156 0.751117
O 0.019286 0.355796 0.246629
O 0.979430 0.643650 0.753190
O 0.345655 0.020105 0.248510
O 0.642292 0.979064 0.753616
O 0.729007 0.396115 0.248620
O 0.268908 0.601675 0.751094
O 0.465407 0.123725 0.095649
O 0.527645 0.877324 0.909920
O 0.118586 0.469037 0.089179
O 0.867860 0.527118 0.903929
O 0.282696 0.486303 0.500494
O 0.717073 0.513884 0.499494
O 0.496615 0.283054 0.502381
O 0.503665 0.717193 0.497898
O 0.026351 0.035063 0.134120
O 0.964954 0.965266 0.854290
O 0.611980 0.614060 0.147416
O 0.392579 0.397902 0.864782
O 0.216352 0.217226 0.935965
O 0.779419 0.780757 0.064067
%ENDBLOCK POSITIONS_FRAC
