# Structure: SGT
# Generated from 18_new_Ice.pdf
%BLOCK LATTICE_CART
8.380192 -0.035881 -0.096055
-0.037150 8.287394 -0.055025
-4.324093 -4.210500 14.262907
%ENDBLOCK LATTICE_CART

%BLOCK POSITIONS_FRAC
H 0.099112 0.068587 0.200732
H 0.901459 0.931021 0.799018
H 0.081141 0.635899 0.173260
H 0.919979 0.364785 0.827050
H 0.432187 0.402347 0.295332
H 0.567677 0.598013 0.704886
H 0.137387 0.600066 0.701233
H 0.862737 0.399797 0.298569
H 0.978630 0.277819 0.246298
H 0.022178 0.722158 0.753787
H 0.218817 0.520300 0.256239
H 0.781519 0.480051 0.743834
H -0.029012 0.484024 0.742352
H 1.029443 0.516538 0.257702
H 0.219524 0.241508 0.252373
H 0.780987 0.758134 0.747609
H 0.175506 0.131415 0.355741
H 0.824314 0.868001 0.644016
H 0.182008 0.735345 0.363637
H 0.817671 0.264533 0.636426
H 0.366047 0.346189 0.176144
H 0.634277 0.653760 0.824031
H 0.764499 0.317058 0.140870
H 0.236417 0.682749 0.859213
H 0.048248 0.824828 0.106610
H 0.952557 0.175086 0.893325
H 0.276820 0.543983 0.603706
H 0.721933 0.455963 0.395860
H 0.934250 -0.034060 0.067060
H 0.066162 1.033837 0.932812
H 0.179034 0.569467 0.049827
H 0.822030 0.430618 0.950629
H 0.064878 0.411305 0.930600
H 0.936249 0.589008 0.069721
H 0.173097 -0.022719 0.048658
H 0.827060 1.022751 0.951276
H 0.473688 0.436376 0.566251
H 0.525530 0.564150 0.433970
H 0.076062 0.673556 0.549033
H 0.922525 0.326093 0.450377
H 0.095726 0.428121 0.566842
H 0.902898 0.571766 0.432579
H 0.526387 0.366659 0.432873
H 0.472822 0.633837 0.567397
H 0.093551 0.781032 0.477544
H 0.905121 0.218905 0.522039
H 0.387298 0.194940 0.472381
H 0.611673 0.805334 0.527525H 0.115881 0.166672 0.450998
H 0.883090 0.832822 0.548528
H 0.601465 0.214406 0.525768
H 0.397386 0.785800 0.474236
H 0.724960 0.410941 0.026029
H 0.275920 0.589208 0.974383
H 0.331036 0.173549 0.045162
H 0.669371 0.826147 0.954983
H 0.333794 0.373917 0.043465
H 0.666896 0.625886 0.956854
H 0.725258 0.109109 0.025381
H 0.274982 0.890749 0.974643
H 0.789638 0.061354 0.578150
H 0.209741 0.938544 0.421866
H 0.566078 0.287075 0.075838
H 0.434559 0.712792 0.924495
O 0.132914 0.167342 0.261691
O 0.867664 0.832055 0.738184
O 0.128492 0.598730 0.267008
O 0.872004 0.401839 0.733119
O 0.332591 0.377840 0.236349
O 0.667442 0.622385 0.763746
O 0.104540 0.634516 0.762225
O 0.896436 0.365555 0.237831
O 0.050042 0.947797 0.104614
O 0.950440 0.052096 0.895221
O 0.052910 0.647622 0.106666
O 0.948228 0.352785 0.893589
O 0.546392 0.447626 0.397109
O 0.452836 0.552879 0.603140
O 0.155006 0.544206 0.604621
O 0.843652 0.455659 0.394748
O -0.012824 0.261599 0.493825
O 0.011360 0.738079 0.505598
O 0.497208 0.269474 0.499388
O 0.501722 0.730853 0.500673
O 0.235190 0.504986 0.002905
O 0.765884 0.495114 -0.002451
O 0.232091 0.001355 0.004229
O 0.768101 -0.001449 -0.004328
O 0.204791 0.115731 0.421632
O 0.794529 0.883951 0.578186
O 0.218786 0.819150 0.429083
O 0.780320 0.180787 0.570972
O 0.391628 0.291818 0.077700
O 0.608937 0.707834 0.922543
O 0.687184 0.284301 0.073267
O 0.313345 0.715581 0.926891
%ENDBLOCK POSITIONS_FRAC
